SAT
-1 -100 -99 98 -43 -6 34 -78 31 -19 29 57 -10 17 -72 7 -41 -9 -58 75 -59 4 80 -2 97 93 69 -50 -8 -51 13 -30 45 81 -66 -84 -56 22 38 53 33 3 90 73 16 -42 85 23 74 27 71 -65 49 47 -64 -88 67 -77 -20 52 -55 -95 86 -15 -14 94 -68 -21 -76 39 -60 -24 87 -92 -25 -63 11 5 -18 -91 -70 82 48 -54 37 -32 79 -44 -12 28 -35 83 -89 -96 -40 62 -46 -26 36 61 0
